Geographic Exponential Decay
20 269 1 206 194 212 310 234 2 89 44 256 9 62 282 103 101 292 113 74 232
p edge 320 1228
e 0 47 1.0
e 0 269 23.0
e 1 96 20.0
e 1 8 63.0
e 1 168 88.0
e 1 11 51.0
e 1 165 55.0
e 1 153 13.0
e 1 13 92.0
e 1 154 100.0
e 1 23 57.0
e 1 207 26.0
e 1 275 81.0
e 1 179 41.0
e 1 74 9.0
e 1 142 84.0
e 1 155 20.0
e 1 20 67.0
e 1 259 53.0
e 1 138 90.0
e 1 177 12.0
e 1 289 34.0
e 1 123 67.0
e 1 112 86.0
e 1 100 30.0
e 1 270 67.0
e 1 12 40.0
e 1 187 4.0
e 1 24 46.0
e 1 90 87.0
e 1 85 92.0
e 1 25 67.0
e 1 156 55.0
e 1 307 32.0
e 1 70 20.0
e 1 167 87.0
e 1 293 53.0
e 1 32 33.0
e 1 262 79.0
e 2 151 67.0
e 2 62 41.0
e 2 202 87.0
e 2 203 95.0
e 2 262 25.0
e 2 32 89.0
e 2 252 49.0
e 2 13 69.0
e 2 10 48.0
e 2 59 14.0
e 2 48 73.0
e 2 14 39.0
e 2 130 50.0
e 2 304 19.0
e 2 90 32.0
e 2 51 38.0
e 2 190 44.0
e 2 39 30.0
e 2 265 53.0
e 2 36 86.0
e 2 257 92.0
e 2 173 60.0
e 2 132 71.0
e 2 138 49.0
e 2 17 34.0
e 2 131 35.0
e 2 1 19.0
e 2 23 44.0
e 2 233 45.0
e 2 305 98.0
e 2 50 1.0
e 2 108 27.0
e 2 182 20.0
e 2 157 50.0
e 2 25 82.0
e 2 181 89.0
e 2 195 76.0
e 3 125 2.0
e 3 207 2.0
e 4 105 2.0
e 4 247 1.0
e 5 232 7.0
e 5 192 1.0
e 5 210 5.0
e 6 54 2.0
e 6 63 1.0
e 7 140 8.0
e 7 35 3.0
e 7 176 3.0
e 8 159 1.0
e 9 232 68.0
e 9 103 3.0
e 9 110 82.0
e 9 29 16.0
e 9 171 14.0
e 9 108 75.0
e 9 31 84.0
e 9 128 19.0
e 9 129 60.0
e 9 65 44.0
e 9 124 4.0
e 9 112 83.0
e 9 157 10.0
e 9 220 79.0
e 9 154 75.0
e 9 30 57.0
e 9 255 1.0
e 9 77 22.0
e 9 132 27.0
e 9 211 63.0
e 9 269 69.0
e 9 312 15.0
e 9 240 30.0
e 9 90 53.0
e 9 139 22.0
e 9 223 98.0
e 9 133 95.0
e 9 98 2.0
e 9 91 44.0
e 9 273 11.0
e 9 151 67.0
e 9 55 76.0
e 9 258 71.0
e 9 60 77.0
e 9 105 91.0
e 9 309 33.0
e 9 191 13.0
e 10 179 4.0
e 10 84 11.0
e 10 282 30.0
e 10 298 5.0
e 10 260 23.0
e 10 72 4.0
e 10 71 1.0
e 10 67 9.0
e 10 226 22.0
e 11 16 2.0
e 12 260 14.0
e 12 299 10.0
e 12 234 10.0
e 12 19 15.0
e 12 73 10.0
e 12 253 7.0
e 12 230 18.0
e 12 291 1.0
e 12 167 17.0
e 14 193 4.0
e 15 156 1.0
e 15 30 1.0
e 15 230 5.0
e 16 118 1.0
e 17 104 8.0
e 17 126 4.0
e 17 3 5.0
e 17 154 8.0
e 18 206 56.0
e 18 21 1.0
e 18 303 2.0
e 19 312 1.0
e 19 229 8.0
e 19 138 8.0
e 19 294 11.0
e 20 73 12.0
e 20 222 3.0
e 21 287 1.0
e 22 52 2.0
e 22 283 6.0
e 22 7 4.0
e 23 211 10.0
e 23 274 24.0
e 23 94 8.0
e 23 68 10.0
e 23 312 21.0
e 23 58 7.0
e 23 91 7.0
e 23 55 15.0
e 24 180 11.0
e 26 276 9.0
e 26 256 5.0
e 27 72 1.0
e 27 256 28.0
e 28 252 2.0
e 28 187 2.0
e 28 304 2.0
e 29 14 4.0
e 29 48 10.0
e 31 139 6.0
e 33 136 2.0
e 33 45 12.0
e 34 57 2.0
e 34 192 1.0
e 34 306 1.0
e 35 181 1.0
e 36 205 9.0
e 36 185 19.0
e 36 289 12.0
e 36 0 6.0
e 36 44 63.0
e 36 139 4.0
e 36 70 3.0
e 36 249 1.0
e 36 8 1.0
e 37 17 1.0
e 37 65 5.0
e 37 249 2.0
e 38 171 1.0
e 38 41 6.0
e 39 23 2.0
e 40 48 10.0
e 40 302 5.0
e 40 253 3.0
e 41 227 2.0
e 41 256 51.0
e 42 11 3.0
e 42 0 1.0
e 42 38 4.0
e 42 119 12.0
e 42 28 3.0
e 43 186 7.0
e 43 170 10.0
e 43 91 9.0
e 43 307 15.0
e 43 199 1.0
e 43 303 18.0
e 43 5 5.0
e 43 246 1.0
e 43 304 10.0
e 43 182 16.0
e 44 164 24.0
e 44 233 83.0
e 44 114 26.0
e 44 152 27.0
e 44 306 17.0
e 44 48 55.0
e 44 214 75.0
e 44 79 74.0
e 44 147 38.0
e 44 112 55.0
e 44 4 32.0
e 44 97 57.0
e 44 188 85.0
e 44 179 5.0
e 44 276 69.0
e 44 63 34.0
e 44 8 63.0
e 44 308 77.0
e 44 103 40.0
e 44 181 88.0
e 44 292 14.0
e 44 224 48.0
e 44 154 51.0
e 44 132 96.0
e 44 20 41.0
e 44 143 39.0
e 44 177 66.0
e 44 151 54.0
e 44 133 1.0
e 44 284 75.0
e 44 94 50.0
e 44 210 69.0
e 44 288 57.0
e 44 255 72.0
e 44 280 48.0
e 44 240 78.0
e 45 301 6.0
e 45 58 9.0
e 45 199 11.0
e 45 282 47.0
e 46 9 70.0
e 46 298 1.0
e 46 10 16.0
e 47 130 10.0
e 48 162 3.0
e 49 58 2.0
e 49 38 5.0
e 49 12 21.0
e 50 242 9.0
e 50 308 10.0
e 50 162 3.0
e 50 230 2.0
e 51 233 1.0
e 51 89 4.0
e 52 260 3.0
e 52 194 42.0
e 53 70 2.0
e 53 118 1.0
e 54 207 3.0
e 54 280 1.0
e 55 116 5.0
e 56 162 4.0
e 56 220 1.0
e 57 62 53.0
e 59 226 13.0
e 59 184 8.0
e 59 263 25.0
e 59 253 19.0
e 59 101 13.0
e 59 311 21.0
e 59 237 11.0
e 59 196 18.0
e 59 37 24.0
e 60 118 2.0
e 61 119 1.0
e 61 172 1.0
e 62 252 42.0
e 62 175 29.0
e 62 82 29.0
e 62 239 92.0
e 62 191 40.0
e 62 28 75.0
e 62 114 95.0
e 62 192 30.0
e 62 54 43.0
e 62 263 49.0
e 62 232 95.0
e 62 35 42.0
e 62 307 11.0
e 62 193 20.0
e 62 233 84.0
e 62 160 90.0
e 62 315 83.0
e 62 158 7.0
e 62 155 35.0
e 62 37 61.0
e 62 255 93.0
e 62 146 28.0
e 62 124 37.0
e 62 119 62.0
e 62 49 16.0
e 62 56 64.0
e 62 228 37.0
e 62 280 92.0
e 62 302 52.0
e 62 36 56.0
e 62 133 12.0
e 62 316 91.0
e 62 313 35.0
e 62 71 58.0
e 62 176 92.0
e 64 195 1.0
e 64 24 2.0
e 64 188 1.0
e 66 282 13.0
e 66 18 6.0
e 66 88 3.0
e 67 106 1.0
e 68 69 4.0
e 68 51 3.0
e 69 173 1.0
e 71 142 2.0
e 71 191 1.0
e 71 167 3.0
e 73 301 5.0
e 73 215 9.0
e 73 296 1.0
e 74 72 61.0
e 74 243 55.0
e 74 68 22.0
e 74 290 59.0
e 74 105 85.0
e 74 190 13.0
e 74 36 100.0
e 74 33 51.0
e 74 14 21.0
e 74 115 81.0
e 74 174 52.0
e 74 88 99.0
e 74 15 69.0
e 74 111 95.0
e 74 171 19.0
e 74 184 3.0
e 74 305 9.0
e 74 98 98.0
e 74 16 79.0
e 74 7 93.0
e 74 282 58.0
e 74 199 52.0
e 74 230 2.0
e 74 114 100.0
e 74 244 73.0
e 74 221 5.0
e 74 28 96.0
e 74 284 15.0
e 74 67 89.0
e 74 4 92.0
e 74 140 4.0
e 74 144 74.0
e 74 251 76.0
e 74 188 84.0
e 74 202 62.0
e 74 300 58.0
e 75 59 19.0
e 75 253 15.0
e 75 31 17.0
e 75 300 12.0
e 75 220 6.0
e 75 60 23.0
e 75 4 12.0
e 75 11 4.0
e 75 158 10.0
e 75 144 7.0
e 76 153 6.0
e 76 169 5.0
e 76 5 11.0
e 76 166 9.0
e 76 267 5.0
e 77 142 2.0
e 77 289 1.0
e 78 46 2.0
e 78 220 2.0
e 79 304 2.0
e 80 1 45.0
e 80 257 5.0
e 80 254 5.0
e 81 268 1.0
e 81 280 2.0
e 82 34 4.0
e 83 64 1.0
e 83 150 3.0
e 83 79 3.0
e 84 283 6.0
e 84 164 1.0
e 85 100 1.0
e 86 63 1.0
e 86 220 1.0
e 87 37 4.0
e 87 59 21.0
e 89 84 72.0
e 89 293 29.0
e 89 23 18.0
e 89 281 28.0
e 89 249 77.0
e 89 13 79.0
e 89 212 27.0
e 89 297 55.0
e 89 260 39.0
e 89 122 92.0
e 89 82 52.0
e 89 20 70.0
e 89 314 29.0
e 89 15 52.0
e 89 299 54.0
e 89 99 17.0
e 89 12 70.0
e 89 287 74.0
e 89 80 72.0
e 89 62 17.0
e 89 298 80.0
e 89 269 5.0
e 89 60 97.0
e 89 48 45.0
e 89 288 9.0
e 89 119 81.0
e 89 153 9.0
e 89 152 24.0
e 89 230 14.0
e 89 301 20.0
e 89 166 8.0
e 89 108 96.0
e 89 221 19.0
e 89 167 32.0
e 89 86 68.0
e 89 278 3.0
e 91 240 8.0
e 91 44 79.0
e 92 297 1.0
e 92 302 1.0
e 93 286 2.0
e 93 43 15.0
e 94 103 100.0
e 94 193 4.0
e 94 199 27.0
e 94 245 4.0
e 94 85 35.0
e 94 37 21.0
e 94 187 29.0
e 94 11 10.0
e 94 97 6.0
e 94 95 34.0
e 94 305 27.0
e 94 191 13.0
e 94 239 5.0
e 94 5 10.0
e 94 222 37.0
e 94 276 11.0
e 94 238 33.0
e 95 58 2.0
e 96 197 3.0
e 96 83 2.0
e 97 271 1.0
e 99 312 2.0
e 99 13 1.0
e 101 46 97.0
e 101 35 76.0
e 101 179 30.0
e 101 53 6.0
e 101 145 26.0
e 101 200 78.0
e 101 233 82.0
e 101 260 86.0
e 101 173 20.0
e 101 262 53.0
e 101 282 15.0
e 101 66 26.0
e 101 195 24.0
e 101 134 29.0
e 101 261 75.0
e 101 237 67.0
e 101 150 81.0
e 101 175 27.0
e 101 18 56.0
e 101 58 56.0
e 101 27 71.0
e 101 102 25.0
e 101 284 57.0
e 101 315 59.0
e 101 83 29.0
e 101 240 55.0
e 101 22 36.0
e 101 309 39.0
e 101 290 74.0
e 101 206 61.0
e 101 47 82.0
e 101 146 27.0
e 101 201 3.0
e 101 177 48.0
e 101 202 96.0
e 101 119 39.0
e 102 202 11.0
e 102 293 5.0
e 102 130 10.0
e 102 251 5.0
e 103 121 26.0
e 103 144 30.0
e 103 66 47.0
e 103 141 86.0
e 103 45 78.0
e 103 35 34.0
e 103 15 10.0
e 103 204 76.0
e 103 97 88.0
e 103 196 31.0
e 103 128 83.0
e 103 239 73.0
e 103 120 43.0
e 103 298 4.0
e 103 98 16.0
e 103 124 35.0
e 103 205 5.0
e 103 135 62.0
e 103 317 77.0
e 103 283 63.0
e 103 115 52.0
e 103 213 41.0
e 103 85 44.0
e 103 162 21.0
e 103 99 89.0
e 103 132 26.0
e 103 131 72.0
e 103 23 30.0
e 103 272 51.0
e 103 238 98.0
e 103 129 14.0
e 103 25 29.0
e 103 203 12.0
e 103 170 50.0
e 104 222 1.0
e 105 58 3.0
e 105 290 4.0
e 106 42 3.0
e 107 185 5.0
e 107 143 4.0
e 109 277 1.0
e 109 211 1.0
e 110 72 4.0
e 110 81 2.0
e 111 59 17.0
e 113 227 69.0
e 113 194 72.0
e 113 312 2.0
e 113 128 77.0
e 113 91 12.0
e 113 179 4.0
e 113 293 75.0
e 113 102 51.0
e 113 152 91.0
e 113 76 50.0
e 113 135 77.0
e 113 64 31.0
e 113 170 35.0
e 113 107 11.0
e 113 1 84.0
e 113 72 50.0
e 113 258 3.0
e 113 129 85.0
e 113 294 6.0
e 113 202 25.0
e 113 30 75.0
e 113 262 89.0
e 113 120 44.0
e 113 92 76.0
e 113 103 39.0
e 113 104 36.0
e 113 259 24.0
e 113 65 97.0
e 113 69 12.0
e 113 93 98.0
e 113 257 80.0
e 113 288 95.0
e 113 165 63.0
e 113 166 79.0
e 113 283 48.0
e 113 260 90.0
e 113 270 86.0
e 115 233 1.0
e 116 290 2.0
e 116 2 47.0
e 116 144 3.0
e 116 43 18.0
e 117 32 4.0
e 117 53 4.0
e 117 294 3.0
e 120 8 4.0
e 121 205 4.0
e 121 292 86.0
e 122 80 6.0
e 123 108 4.0
e 123 141 2.0
e 125 282 39.0
e 126 177 1.0
e 126 277 5.0
e 127 27 2.0
e 127 298 2.0
e 130 193 2.0
e 130 164 12.0
e 132 126 10.0
e 134 124 4.0
e 135 177 7.0
e 135 40 3.0
e 135 16 10.0
e 136 177 1.0
e 137 108 2.0
e 137 18 1.0
e 139 82 1.0
e 139 196 11.0
e 140 57 24.0
e 140 189 19.0
e 140 243 3.0
e 140 142 24.0
e 140 146 1.0
e 140 119 8.0
e 140 14 14.0
e 140 176 14.0
e 142 6 9.0
e 143 80 4.0
e 143 156 9.0
e 143 24 9.0
e 145 195 16.0
e 145 222 17.0
e 145 281 9.0
e 145 52 2.0
e 145 159 5.0
e 145 286 20.0
e 145 4 1.0
e 145 12 14.0
e 145 178 13.0
e 147 301 2.0
e 148 152 4.0
e 148 65 2.0
e 149 39 9.0
e 149 310 81.0
e 149 1 12.0
e 149 49 3.0
e 149 251 4.0
e 151 186 7.0
e 151 74 54.0
e 153 230 6.0
e 153 151 1.0
e 155 305 42.0
e 155 318 26.0
e 155 207 47.0
e 155 198 8.0
e 155 243 41.0
e 155 110 49.0
e 155 4 6.0
e 155 173 19.0
e 155 63 41.0
e 155 28 6.0
e 155 239 5.0
e 155 281 39.0
e 155 37 27.0
e 155 25 32.0
e 155 2 78.0
e 155 199 25.0
e 155 95 34.0
e 157 118 5.0
e 157 293 9.0
e 157 22 11.0
e 160 126 4.0
e 160 94 32.0
e 161 109 2.0
e 161 140 2.0
e 163 138 16.0
e 163 167 25.0
e 163 2 5.0
e 163 311 18.0
e 163 180 7.0
e 163 312 10.0
e 163 189 11.0
e 163 30 6.0
e 163 24 8.0
e 163 190 18.0
e 166 160 3.0
e 166 249 3.0
e 168 145 10.0
e 169 300 5.0
e 169 72 3.0
e 172 40 1.0
e 174 216 1.0
e 174 186 6.0
e 174 118 1.0
e 174 152 24.0
e 174 223 2.0
e 174 80 13.0
e 174 23 11.0
e 174 157 6.0
e 174 176 6.0
e 175 85 1.0
e 175 210 8.0
e 175 256 73.0
e 178 34 6.0
e 180 271 7.0
e 180 309 4.0
e 180 245 8.0
e 183 223 2.0
e 183 299 5.0
e 185 243 1.0
e 187 182 7.0
e 187 132 2.0
e 189 255 4.0
e 194 140 21.0
e 194 295 46.0
e 194 260 57.0
e 194 178 58.0
e 194 176 7.0
e 194 8 54.0
e 194 21 56.0
e 194 305 47.0
e 194 139 42.0
e 194 77 16.0
e 194 277 47.0
e 194 14 55.0
e 194 44 88.0
e 194 98 26.0
e 194 195 86.0
e 194 136 14.0
e 194 91 38.0
e 194 160 94.0
e 194 185 50.0
e 194 255 69.0
e 194 47 72.0
e 194 51 75.0
e 194 247 71.0
e 194 121 27.0
e 194 45 75.0
e 194 86 58.0
e 194 301 25.0
e 194 102 21.0
e 194 118 14.0
e 194 46 65.0
e 194 23 42.0
e 194 286 90.0
e 194 9 84.0
e 194 78 72.0
e 194 218 57.0
e 196 253 6.0
e 196 255 7.0
e 197 288 1.0
e 197 103 86.0
e 198 188 1.0
e 200 50 7.0
e 200 287 4.0
e 201 23 22.0
e 201 94 40.0
e 203 220 11.0
e 203 145 24.0
e 203 9 53.0
e 203 140 21.0
e 203 52 10.0
e 203 72 13.0
e 203 292 64.0
e 203 104 2.0
e 204 252 2.0
e 206 5 58.0
e 206 80 90.0
e 206 1 72.0
e 206 81 97.0
e 206 272 46.0
e 206 290 68.0
e 206 177 50.0
e 206 258 25.0
e 206 40 59.0
e 206 225 63.0
e 206 170 80.0
e 206 223 4.0
e 206 178 17.0
e 206 86 65.0
e 206 127 84.0
e 206 31 21.0
e 206 134 86.0
e 206 204 62.0
e 206 49 69.0
e 206 64 58.0
e 206 207 76.0
e 206 102 16.0
e 206 63 45.0
e 206 222 83.0
e 206 74 76.0
e 206 232 47.0
e 206 309 38.0
e 206 75 52.0
e 206 122 47.0
e 206 165 2.0
e 206 125 50.0
e 206 97 30.0
e 206 76 62.0
e 206 41 87.0
e 206 224 76.0
e 208 207 1.0
e 208 188 3.0
e 209 99 1.0
e 209 237 1.0
e 209 127 6.0
e 209 210 12.0
e 209 22 5.0
e 212 66 56.0
e 212 312 42.0
e 212 295 76.0
e 212 176 3.0
e 212 286 50.0
e 212 62 25.0
e 212 209 45.0
e 212 42 51.0
e 212 192 88.0
e 212 226 81.0
e 212 97 85.0
e 212 313 15.0
e 212 34 88.0
e 212 314 65.0
e 212 68 44.0
e 212 113 98.0
e 212 143 15.0
e 212 8 68.0
e 212 268 97.0
e 212 122 99.0
e 212 289 98.0
e 212 287 45.0
e 212 127 80.0
e 212 0 41.0
e 212 144 100.0
e 212 105 15.0
e 212 33 47.0
e 212 254 65.0
e 212 227 99.0
e 212 272 96.0
e 212 216 75.0
e 212 116 99.0
e 212 94 90.0
e 212 120 4.0
e 212 196 78.0
e 212 303 79.0
e 213 81 1.0
e 214 116 6.0
e 215 66 4.0
e 217 88 2.0
e 217 77 1.0
e 218 60 2.0
e 218 215 2.0
e 219 81 1.0
e 219 143 10.0
e 224 104 3.0
e 224 215 8.0
e 224 1 4.0
e 225 210 4.0
e 225 144 3.0
e 228 61 3.0
e 229 261 5.0
e 229 189 4.0
e 231 245 6.0
e 231 73 5.0
e 232 88 58.0
e 232 223 47.0
e 232 242 7.0
e 232 279 48.0
e 232 16 34.0
e 232 176 28.0
e 232 191 72.0
e 232 15 30.0
e 232 34 40.0
e 232 180 40.0
e 232 51 26.0
e 232 82 61.0
e 232 285 87.0
e 232 253 2.0
e 232 28 8.0
e 232 294 55.0
e 232 317 94.0
e 232 85 36.0
e 232 107 29.0
e 232 225 16.0
e 232 307 17.0
e 232 43 74.0
e 232 241 9.0
e 232 192 33.0
e 232 149 32.0
e 232 188 80.0
e 232 23 33.0
e 232 29 86.0
e 232 154 82.0
e 232 224 3.0
e 232 18 85.0
e 232 182 97.0
e 232 8 65.0
e 234 215 21.0
e 234 29 26.0
e 234 289 56.0
e 234 140 89.0
e 234 195 54.0
e 234 167 93.0
e 234 36 36.0
e 234 143 4.0
e 234 189 24.0
e 234 188 95.0
e 234 93 5.0
e 234 273 45.0
e 234 81 69.0
e 234 75 50.0
e 234 134 72.0
e 234 122 40.0
e 234 139 61.0
e 234 137 47.0
e 234 190 95.0
e 234 65 77.0
e 234 127 93.0
e 234 61 34.0
e 234 165 68.0
e 234 158 39.0
e 234 76 73.0
e 234 150 45.0
e 234 42 39.0
e 234 32 95.0
e 234 10 16.0
e 234 43 38.0
e 234 251 47.0
e 234 114 37.0
e 234 107 22.0
e 234 291 8.0
e 234 269 11.0
e 234 151 42.0
e 235 32 2.0
e 235 197 2.0
e 236 208 2.0
e 236 74 41.0
e 238 15 6.0
e 240 53 1.0
e 240 84 49.0
e 240 272 42.0
e 240 33 6.0
e 240 222 14.0
e 240 195 10.0
e 240 169 7.0
e 240 103 1.0
e 240 165 38.0
e 240 318 34.0
e 240 23 34.0
e 240 62 17.0
e 240 286 48.0
e 240 55 27.0
e 240 206 16.0
e 241 131 1.0
e 242 148 1.0
e 244 159 1.0
e 246 95 1.0
e 247 148 1.0
e 247 298 6.0
e 247 207 8.0
e 248 160 6.0
e 248 170 1.0
e 248 313 4.0
e 249 294 5.0
e 250 157 13.0
e 250 73 22.0
e 250 232 66.0
e 250 0 7.0
e 250 138 12.0
e 250 151 21.0
e 250 4 21.0
e 250 133 1.0
e 250 131 14.0
e 250 92 20.0
e 256 151 96.0
e 256 307 26.0
e 256 105 89.0
e 256 192 61.0
e 256 64 32.0
e 256 55 23.0
e 256 250 52.0
e 256 106 84.0
e 256 100 10.0
e 256 113 64.0
e 256 183 49.0
e 256 141 84.0
e 256 39 85.0
e 256 45 75.0
e 256 136 27.0
e 256 178 53.0
e 256 7 54.0
e 256 1 78.0
e 256 29 73.0
e 256 42 17.0
e 256 63 73.0
e 256 312 52.0
e 256 54 34.0
e 256 202 100.0
e 256 285 71.0
e 256 162 71.0
e 256 118 64.0
e 256 117 35.0
e 256 77 61.0
e 256 147 98.0
e 256 108 61.0
e 256 282 25.0
e 256 76 2.0
e 259 261 4.0
e 263 4 13.0
e 263 108 31.0
e 263 67 2.0
e 263 196 16.0
e 263 194 98.0
e 263 257 15.0
e 263 114 30.0
e 263 306 13.0
e 263 169 12.0
e 263 280 48.0
e 263 199 11.0
e 263 140 5.0
e 263 52 49.0
e 263 95 49.0
e 263 111 14.0
e 263 83 36.0
e 263 149 42.0
e 264 309 3.0
e 264 72 2.0
e 265 77 2.0
e 266 274 1.0
e 266 185 9.0
e 266 29 2.0
e 266 267 10.0
e 266 317 8.0
e 269 7 86.0
e 269 150 92.0
e 269 211 80.0
e 269 212 97.0
e 269 195 69.0
e 269 221 78.0
e 269 239 72.0
e 269 120 66.0
e 269 292 74.0
e 269 294 53.0
e 269 186 72.0
e 269 279 97.0
e 269 173 81.0
e 269 24 75.0
e 269 51 35.0
e 269 198 26.0
e 269 156 28.0
e 269 278 53.0
e 269 205 10.0
e 269 251 48.0
e 269 167 42.0
e 269 28 96.0
e 269 217 10.0
e 269 75 37.0
e 269 52 13.0
e 269 2 84.0
e 269 208 10.0
e 269 152 11.0
e 269 73 79.0
e 269 181 2.0
e 269 87 23.0
e 269 286 40.0
e 269 3 61.0
e 270 316 5.0
e 270 230 22.0
e 270 110 9.0
e 270 267 3.0
e 270 116 6.0
e 270 93 16.0
e 270 235 20.0
e 270 209 9.0
e 271 89 98.0
e 274 148 6.0
e 275 236 1.0
e 275 232 54.0
e 275 148 3.0
e 275 153 3.0
e 276 314 9.0
e 276 265 6.0
e 278 4 1.0
e 279 164 1.0
e 279 185 1.0
e 279 183 4.0
e 282 250 32.0
e 282 252 87.0
e 282 247 40.0
e 282 183 13.0
e 282 197 8.0
e 282 257 77.0
e 282 172 37.0
e 282 87 28.0
e 282 304 94.0
e 282 173 21.0
e 282 138 2.0
e 282 249 37.0
e 282 242 83.0
e 282 118 25.0
e 282 254 28.0
e 282 137 68.0
e 282 76 44.0
e 282 140 55.0
e 282 62 21.0
e 282 139 65.0
e 282 228 31.0
e 282 113 46.0
e 282 24 11.0
e 282 154 66.0
e 282 203 35.0
e 282 207 45.0
e 282 217 14.0
e 282 269 31.0
e 282 7 42.0
e 282 149 81.0
e 288 160 1.0
e 291 188 3.0
e 292 313 29.0
e 292 293 68.0
e 292 221 76.0
e 292 297 19.0
e 292 204 4.0
e 292 273 74.0
e 292 243 32.0
e 292 311 2.0
e 292 192 60.0
e 292 94 8.0
e 292 272 7.0
e 292 291 28.0
e 292 218 99.0
e 292 125 63.0
e 292 296 12.0
e 292 266 63.0
e 292 152 73.0
e 292 142 76.0
e 292 5 81.0
e 292 294 67.0
e 292 255 78.0
e 292 148 48.0
e 292 244 53.0
e 292 259 100.0
e 292 153 72.0
e 292 112 89.0
e 292 271 4.0
e 292 318 87.0
e 292 159 99.0
e 292 39 44.0
e 292 25 19.0
e 292 11 6.0
e 292 38 8.0
e 296 177 5.0
e 296 91 6.0
e 296 254 5.0
e 297 81 6.0
e 297 229 24.0
e 297 34 23.0
e 297 206 45.0
e 297 220 23.0
e 297 266 10.0
e 297 307 1.0
e 303 140 1.0
e 303 25 4.0
e 310 317 69.0
e 310 283 15.0
e 310 93 51.0
e 310 210 33.0
e 310 137 9.0
e 310 195 72.0
e 310 79 39.0
e 310 271 5.0
e 310 259 83.0
e 310 240 79.0
e 310 292 64.0
e 310 199 52.0
e 310 250 5.0
e 310 95 73.0
e 310 154 91.0
e 310 68 93.0
e 310 38 91.0
e 310 54 20.0
e 310 63 7.0
e 310 76 82.0
e 310 273 1.0
e 310 52 25.0
e 310 57 64.0
e 310 260 25.0
e 310 46 17.0
e 310 230 54.0
e 310 130 47.0
e 310 286 8.0
e 310 224 64.0
e 310 225 97.0
e 310 155 68.0
e 310 34 30.0
e 310 214 51.0
e 310 27 12.0
e 310 311 80.0
e 310 14 21.0
e 314 201 3.0
e 314 222 3.0
e 319 171 2.0
e 319 309 1.0
